(set-logic HORN)
(declare-fun inv ((_ BitVec 64) (_ BitVec 64) (_ BitVec 64) ) Bool)
(assert (forall ((i (_ BitVec 64)) (k (_ BitVec 64)) (j (_ BitVec 64))) 
       (=> ( and ( = i (_ bv0 64) ) ( = k (_ bv0 64) ) ) (inv i k j))))
(assert (forall ((i (_ BitVec 64)) (k (_ BitVec 64)) (j (_ BitVec 64)) (i! (_ BitVec 64)) (k! (_ BitVec 64)) (j! (_ BitVec 64))) 
       (=> (and (inv i k j) ( and ( bvult i (_ bv1000000 64) ) ( bvule (_ bv1 64) j! ) ( bvult j! (_ bv1000000 64) ) ( = i! ( bvadd i j! ) ) ( = k! ( bvadd k (_ bv1 64) ) ) )) (inv i! k! j!))))
(assert (forall ((i (_ BitVec 64)) (k (_ BitVec 64)) (j (_ BitVec 64))) 
       (=> (inv i k j) ( or ( bvult i (_ bv1000000 64) ) ( bvule k (_ bv1000000 64) ) ))))
(check-sat)
